n = 100;
C = 26270;
w = [449,441,161,497,779,970,86,265,60,440,530,815,410,410,989,770,156,49,336,368,256,107,92,512,640,363,235,774,424,175,820,946,841,425,291,233,490,567,55,155,914,620,611,699,975,244,997,259,162,699,434,133,760,503,800,891,907,649,699,903,559,768,824,291,45,855,597,651,780,994,575,262,915,820,50,778,712,524,725,476,620,107,428,683,300,352,748,591,665,660,946,490,633,287,244,790,517,601,230,206];
p = [518,374,133,554,787,1023,166,199,135,354,462,877,504,475,974,730,209,76,343,464,314,66,-4,486,585,321,294,843,395,84,815,862,853,511,249,330,568,590,-35,236,989,557,695,748,917,238,909,179,197,655,419,95,787,580,811,882,988,710,751,824,534,730,775,293,15,862,591,615,765,994,630,293,853,804,104,849,741,560,790,440,604,57,418,755,293,346,813,530,608,640,866,444,690,375,225,858,522,649,158,290];
